
Log started (V22.2.0.0) Tue Jun  9 08:33:09 2026

New value for time limit in seconds: 120
New value for default parallel thread count: 4
New value for mixed integer optimality gap tolerance: 0.001
New value for level of mixed integer node display: 2

Problem 'results/InstanceA4_bigm_finsteps123.lp' read.
Read time = 0.01 sec. (0.26 ticks)
Version identifier: 22.2.0.0 | 2026-05-04 | 5dff98e58
CPXPARAM_Threads                                 4
CPXPARAM_TimeLimit                               120
CPXPARAM_MIP_Tolerances_MIPGap                   0.001
Tried aggregator 2 times.
MIP Presolve eliminated 28 rows and 28 columns.
MIP Presolve modified 29075 coefficients.
Aggregator did 269 substitutions.
Reduced MIP has 2633 rows, 1472 columns, and 7616 nonzeros.
Reduced MIP has 1203 binaries, 0 generals, 0 SOSs, and 0 indicators.
Presolve time = 0.01 sec. (13.31 ticks)
Found incumbent of value 42.000000 after 0.01 sec. (18.89 ticks)
Probing time = 0.00 sec. (3.27 ticks)
Tried aggregator 1 time.
Detecting symmetries...
MIP Presolve modified 20 coefficients.
Reduced MIP has 2633 rows, 1472 columns, and 7616 nonzeros.
Reduced MIP has 1203 binaries, 0 generals, 0 SOSs, and 0 indicators.
Presolve time = 0.00 sec. (4.19 ticks)
Probing time = 0.00 sec. (3.19 ticks)
Clique table members: 560.
MIP emphasis: balance optimality and feasibility.
MIP search method: dynamic search.
Parallel mode: deterministic, using up to 4 threads.
Root relaxation solution time = 0.01 sec. (29.13 ticks)

        Nodes                                         Cuts/
   Node  Left     Objective  IInf  Best Integer    Best Bound    ItCnt     Gap

*     0+    0                           42.0000       14.0000            66.67%
*     0+    0                           39.0000       14.0000            64.10%
      0     0       14.0000     6       39.0000       14.0000      824   64.10%
*     0+    0                           17.0000       14.0000            17.65%
      0     0       14.0016     8       17.0000      Cuts: 16      904   17.64%
      0     0       15.0001     4       17.0000      Cuts: 28      930   11.76%
      0     0        cutoff             17.0000                    940    0.00%
Elapsed time = 0.05 sec. (90.50 ticks, tree = 0.01 MB, solutions = 3)

Clique cuts applied:  7
Implied bound cuts applied:  18
Mixed integer rounding cuts applied:  12
Gomory fractional cuts applied:  2

Root node processing (before b&c):
  Real time             =    0.05 sec. (90.62 ticks)
Parallel b&c, 4 threads:
  Real time             =    0.00 sec. (0.00 ticks)
  Sync time (average)   =    0.00 sec.
  Wait time (average)   =    0.00 sec.
                          ------------
Total (root+branch&cut) =    0.05 sec. (90.62 ticks)

Solution pool: 3 solutions saved.

MIP - Integer optimal solution:  Objective =  1.7000000000e+01
Solution time =    0.05 sec.  Iterations = 940  Nodes = 0
Deterministic time = 90.63 ticks  (1915.00 ticks/sec)


Incumbent solution written to file 'results/InstanceA4_bigm_finsteps123.sol'.
